200
200
140
140
140
139
139
138
138
138
137
137
137
137
137
133
133
133
133
132
132
132
131
131
131
131
130
129
128
128
128
125
125
124
123
123
123
123
123
123
122
120
120
119
118
118
118
116
116
116
116
115
115
115
114
112
111
111
110
109
109
107
107
106
106
106
105
105
105
105
104
104
103
102
100
99
99
98
98
97
97
95
95
94
94
94
94
92
91
91
91
90
89
89
88
86
86
85
85
85
83
82
82
82
81
81
81
81
79
78
78
78
78
77
75
75
74
74
73
72
72
71
71
69
69
65
65
64
64
64
64
63
63
61
61
61
60
59
58
58
57
57
56
56
56
55
55
53
52
50
50
49
49
48
47
46
44
43
43
43
43
42
41
41
40
40
39
38
38
38
37
37
37
36
36
35
35
35
35
34
34
33
32
31
31
31
30
30
30
29
29
29
28
26
26
25
25
23
23
23
21
20
